6,1
4,1
8,2
3,2
2,2
1,0
7,0
9,0
5,0
1,1
7,2
4,2
9,2
5,2
6,2
8,3
3,3
2,3
5,1
3,1
9,1
7,1
1,2
8,5
2,5
6,3
4,3
2,1
8,1
7,4
1,5
9,5
5,5
3,6
4,6
6,6
4,4
6,4
1,4
8,4
3,5
2,6
5,6
7,6
9,6
3,4
5,4
2,4
6,5
7,5
4,5
9,9
1,6
8,6
9,4
2,7
3,7
4,7
8,8
7,8
6,9
5,9
1,9
7,7
1,7
5,7
2,8
6,8
9,8
4,9
8,9
3,9
8,7
9,7
6,7
5,8
4,8
3,8
1,8
2,9
7,9